Maximize
  30 x_liquid + 20 x_foam_hand_sanitizer
Subject To
  c1: 40 x_liquid + 60 x_foam_hand_sanitizer <= 2000
  c2: 50 x_liquid + 40 x_foam_hand_sanitizer <= 2100
  c3: x_foam_hand_sanitizer - x_liquid >= 0
  c4: x_liquid <= 30
End